
312
750
   600      1
   599      1
   598      1
   597      1
   593      2
   592      2
   590      4
   588      1
   587      1
   584      2
   582      2
   581      2
   579      1
   578      4
   577      1
   574      1
   573      1
   569      1
   565      1
   561      2
   560      2
   559      1
   558      1
   557      1
   555      1
   554      3
   550      1
   549      2
   548      1
   545      1
   543      5
   541      1
   539      1
   536      2
   535      1
   533      1
   532      1
   530      1
   528      1
   526      1
   524      1
   523      2
   522      1
   520      1
   519      2
   518      1
   514      1
   513      1
   512      1
   511      1
   508      3
   506      1
   505      1
   504      1
   502      2
   500      1
   499      1
   498      3
   496      3
   494      3
   492      1
   488      3
   487      2
   484      3
   482      2
   480      4
   479      1
   478      1
   476      2
   475      1
   474      3
   473      1
   472      2
   471      2
   470      1
   466      1
   465      1
   464      5
   463      1
   462      2
   461      1
   460      3
   459      1
   457      3
   454      1
   453      1
   451      1
   449      1
   447      4
   446      1
   444      1
   443      1
   441      1
   440      2
   439      1
   438      3
   437      1
   434      2
   430      3
   429      1
   428      1
   427      1
   426      3
   425      1
   423      1
   421      1
   419      2
   417      1
   415      1
   414      2
   413      1
   410      2
   409      2
   408      1
   407      1
   405      2
   401      1
   400      1
   399      1
   396      4
   395      3
   393      2
   392      1
   390      2
   389      2
   387      1
   385      3
   383      1
   382      2
   381      1
   380      1
   377      1
   374      2
   372      2
   370      1
   368      1
   366      1
   365      2
   362      2
   359      2
   358      1
   357      1
   356      1
   355      2
   351      1
   350      1
   348      2
   347      1
   345      1
   344      1
   343      3
   341      1
   340      1
   339      2
   338      2
   336      1
   334      1
   333      3
   332      3
   331      2
   330      2
   324      1
   323      2
   321      1
   319      1
   318      1
   317      1
   315      1
   314      2
   313      1
   312      1
   311      2
   310      1
   309      1
   306      2
   305      1
   304      1
   303      1
   302      2
   301      1
   300      1
   299      1
   298      1
   297      1
   296      2
   295      2
   290      1
   285      1
   282      4
   280      2
   279      3
   278      1
   277      2
   276      1
   274      4
   273      1
   272      2
   271      2
   270      1
   269      2
   268      1
   266      1
   264      1
   258      2
   256      3
   255      1
   252      3
   250      1
   248      1
   247      1
   245      1
   243      1
   241      3
   240      1
   239      1
   237      1
   236      2
   234      3
   232      3
   229      2
   227      2
   224      1
   222      2
   220      1
   219      2
   218      1
   214      3
   213      3
   207      1
   204      3
   201      1
   200      1
   196      2
   195      3
   194      3
   193      1
   190      1
   189      1
   187      1
   186      1
   184      3
   183      2
   182      1
   181      1
   180      1
   176      1
   175      2
   173      1
   172      1
   171      2
   170      1
   169      1
   168      1
   167      1
   165      1
   162      2
   160      1
   158      1
   157      2
   155      2
   154      2
   152      1
   151      3
   150      1
   149      1
   148      1
   147      2
   145      1
   144      1
   143      1
   142      3
   141      2
   140      2
   139      2
   138      1
   137      1
   136      1
   135      3
   134      1
   133      4
   132      1
   131      2
   127      1
   126      1
   124      1
   123      1
   122      1
   121      1
   120      3
   119      1
   118      1
   116      1
   114      3
   111      2
   108      1
   106      2
   105      1
   104      3
   102      1
   101      1
   100      2
    99      1
    98      2
    95      1
    94      1
    90      1
    89      2
    82      1
    81      1
    80      3
    78      4
    76      4




The initial LP solution: time=0.61


File: BPP_500_750_0.1_0.8_9.txt  Instance No. 1
Wed Feb 25 13:43:34 2015

LP solution: lpval=222.8123287671233 lpbnd=223

1: 0:1 263:1 obj 1\\
2: 4:1 258:1 obj 1\\
1: 6:1 256:1 obj 1\\
1: 6:1 257:1 obj 1\\
2: 6:1 259:1 obj 1\\
1: 9:1 254:1 obj 1\\
1: 10:1 253:1 obj 1\\
1: 13:1 250:1 obj 1\\
1: 14:1 247:1 obj 1\\
1: 15:1 245:1 obj 1\\
1: 16:1 246:1 obj 1\\
1: 17:1 243:1 obj 1\\
1: 19:1 238:1 obj 1\\
2: 25:1 232:1 obj 1\\
1: 25:1 233:1 obj 1\\
2: 30:1 229:1 obj 1\\
0.3555276866679523: 30:1 281:1 311:1 obj 1\\
0.3992089523442023: 31:1 282:1 307:1 obj 1\\
1: 33:1 226:1 obj 1\\
1: 34:1 226:1 obj 1\\
2: 41:1 220:1 obj 1\\
1: 43:1 219:1 obj 1\\
1: 47:1 215:1 obj 1\\
1: 49:1 214:1 obj 1\\
3: 50:1 212:1 obj 1\\
1: 52:1 210:1 obj 1\\
1: 53:1 213:1 obj 1\\
1: 55:1 207:1 obj 1\\
3: 57:1 206:1 obj 1\\
3: 59:1 204:1 obj 1\\
1: 60:1 203:1 obj 1\\
0.1093189272622038: 65:1 277:2 obj 1\\
1: 72:1 192:1 obj 1\\
3: 77:1 188:1 obj 1\\
1: 81:1 186:1 obj 1\\
1: 84:1 184:1 obj 1\\
1: 87:1 179:1 obj 1\\
1: 88:1 180:1 obj 1\\
1: 91:1 175:1 obj 1\\
1: 95:1 171:1 obj 1\\
1: 96:1 169:1 obj 1\\
1: 98:1 166:1 obj 1\\
1: 99:1 163:1 obj 1\\
2: 106:1 159:1 obj 1\\
1: 107:1 157:1 obj 1\\
1: 109:1 155:1 obj 1\\
2: 111:1 153:1 obj 1\\
1: 112:1 151:1 obj 1\\
1: 113:1 152:1 obj 1\\
0.03914721203935961: 115:1 150:1 obj 1\\
1: 117:1 145:1 obj 1\\
0.3514759791626475: 118:1 144:1 obj 1\\
1: 119:1 146:1 obj 1\\
2: 120:1 143:1 obj 1\\
1: 122:1 140:1 obj 1\\
2: 123:1 139:1 obj 1\\
1: 125:1 138:1 obj 1\\
2: 126:1 137:1 obj 1\\
1: 126:1 138:1 obj 1\\
1: 127:1 136:1 obj 1\\
1: 128:1 135:1 obj 1\\
1: 130:1 134:1 obj 1\\
1: 132:2 obj 1\\
0.5: 133:2 obj 1\\
1: 98:1 165:1 obj 1\\
0.6485240208373525: 118:1 147:1 obj 1\\
1: 35:1 226:1 obj 1\\
1: 63:1 201:1 obj 1\\
1: 65:1 198:1 obj 1\\
1: 44:1 219:1 obj 1\\
1: 51:1 211:1 obj 1\\
0.9803202778313715: 63:1 279:2 obj 1\\
1: 75:1 188:1 obj 1\\
1: 10:1 252:1 obj 1\\
1: 12:1 249:1 obj 1\\
0.2884622805325099: 21:1 240:1 obj 1\\
1: 30:1 228:1 obj 1\\
1: 48:1 216:1 obj 1\\
1: 70:1 193:1 obj 1\\
1: 108:1 157:1 obj 1\\
1: 114:1 150:1 obj 1\\
1: 115:1 148:1 obj 1\\
2: 5:1 260:1 obj 1\\
1: 18:1 240:1 obj 1\\
1: 39:1 222:1 obj 1\\
1: 46:1 216:1 obj 1\\
1: 64:1 200:1 obj 1\\
2: 65:1 199:1 obj 1\\
1: 66:1 197:1 obj 1\\
1: 88:1 177:1 obj 1\\
1: 102:1 162:1 obj 1\\
1: 13:1 248:1 obj 1\\
1: 23:1 235:1 obj 1\\
1: 45:1 218:1 obj 1\\
1: 54:1 208:1 obj 1\\
0.4900443758441053: 83:1 227:1 309:1 obj 1\\
1: 90:1 174:1 obj 1\\
1: 93:1 172:1 obj 1\\
1: 101:1 162:1 obj 1\\
1: 121:1 141:1 obj 1\\
1: 8:1 255:1 obj 1\\
1: 27:1 230:1 obj 1\\
1: 33:1 227:1 obj 1\\
1: 36:1 225:1 obj 1\\
1: 67:1 196:1 obj 1\\
2: 70:1 194:1 obj 1\\
0.7346903337835224: 81:1 266:1 269:1 obj 1\\
2: 88:1 178:1 obj 1\\
1: 95:1 170:1 obj 1\\
1: 104:1 218:1 303:1 obj 1\\
0.6485240208373525: 119:1 144:1 obj 1\\
1: 13:1 249:1 obj 1\\
1: 13:1 304:1 310:1 obj 1\\
0.1054794520547939: 32:1 295:1 296:1 obj 1\\
1: 37:1 223:1 obj 1\\
1: 38:1 222:1 obj 1\\
1: 40:1 221:1 obj 1\\
0.2002315261431591: 56:1 277:1 291:1 obj 1\\
0.8977619139494503: 61:1 270:1 288:1 obj 1\\
1: 63:1 202:1 obj 1\\
2: 73:1 190:1 obj 1\\
1: 77:1 189:1 obj 1\\
1: 89:1 176:1 obj 1\\
1: 97:1 167:1 obj 1\\
1: 102:1 161:1 obj 1\\
1: 112:1 154:1 obj 1\\
1: 121:1 142:1 obj 1\\
1: 131:1 133:1 obj 1\\
0.6485240208373525: 150:1 185:1 293:1 obj 1\\
1: 1:1 262:1 obj 1\\
1: 7:1 255:1 obj 1\\
1: 11:1 251:1 obj 1\\
1: 20:1 237:1 obj 1\\
1: 29:1 229:1 obj 1\\
1: 54:1 209:1 obj 1\\
1.668107273779665: 58:1 272:1 292:1 obj 1\\
2: 68:1 194:1 obj 1\\
1: 69:1 195:1 obj 1\\
0.09475207408836517: 82:1 266:1 268:1 obj 1\\
1: 92:1 174:1 obj 1\\
1: 97:1 168:1 obj 1\\
1: 98:1 164:1 obj 1\\
1: 103:1 241:1 270:1 obj 1\\
1: 116:1 146:1 obj 1\\
1: 26:1 231:1 obj 1\\
0.4664672969322791: 28:1 297:1 302:1 obj 1\\
0.3137950993633028: 30:1 294:1 301:1 obj 1\\
0.8945205479452061: 32:1 279:1 310:1 obj 1\\
0.5658306000385882: 42:1 292:2 obj 1\\
0.249276480802624: 61:1 276:1 283:1 obj 1\\
1: 72:1 191:1 obj 1\\
0.9126953501832917: 77:1 244:1 295:1 obj 1\\
1: 93:1 173:1 obj 1\\
1: 94:1 171:1 obj 1\\
0.9608527879606403: 115:1 149:1 obj 1\\
1: 124:1 196:1 306:1 obj 1\\
0.6007910476557977: 124:1 217:1 282:1 obj 1\\
1: 158:1 185:1 285:1 obj 1\\
0.3600617403048427: 160:1 184:1 284:1 obj 1\\
1: 2:1 262:1 obj 1\\
1: 11:1 306:1 309:1 obj 1\\
1: 74:1 189:1 obj 1\\
0.2653096662164776: 78:1 268:1 269:1 obj 1\\
0.316554119235964: 81:1 242:1 294:1 obj 1\\
1: 85:1 183:1 obj 1\\
1: 110:1 156:1 obj 1\\
1.149932471541578: 119:1 217:1 288:1 obj 1\\
0.750723519197376: 128:1 218:1 276:1 obj 1\\
0.4231140266255066: 150:1 227:1 234:1 obj 1\\
1: 3:1 261:1 obj 1\\
1: 19:1 239:1 obj 1\\
0.316554119235964: 30:1 283:1 308:1 obj 1\\
0.02868994790661827: 56:1 279:1 290:1 obj 1\\
0.2015820953115954: 58:1 280:1 286:1 obj 1\\
1: 61:1 203:1 obj 1\\
0.3515724483889639: 62:1 267:1 290:1 obj 1\\
1: 71:1 192:1 obj 1\\
1: 76:1 187:1 obj 1\\
0.3807640362724293: 79:1 266:1 271:1 obj 1\\
0.1815936716187534: 80:1 227:1 311:1 obj 1\\
0.7671618753617602: 80:1 266:1 270:1 obj 1\\
0.9487555469805136: 81:1 262:1 273:1 obj 1\\
1: 95:1 217:1 310:1 obj 1\\
0.7984564923789309: 102:1 224:1 296:1 obj 1\\
0.249276480802624: 128:1 217:1 278:1 obj 1\\
1: 9:1 305:1 311:1 obj 1\\
1: 20:1 236:1 obj 1\\
0.9818251977619143: 30:1 295:1 299:1 obj 1\\
0.01967972216862846: 63:1 265:1 290:1 obj 1\\
1: 64:1 275:1 281:1 obj 1\\
0.7346903337835224: 78:1 241:1 297:1 obj 1\\
0.424734709627628: 79:1 264:1 273:1 obj 1\\
1: 86:1 181:1 obj 1\\
1: 109:1 157:1 obj 1\\
0.7997684738568409: 22:1 291:1 311:1 obj 1\\
0.2002315261431591: 22:1 292:1 310:1 obj 1\\
1: 27:1 233:1 obj 1\\
0.4341693999614118: 42:1 283:1 298:1 obj 1\\
0.6204128882886359: 56:1 280:1 289:1 obj 1\\
0.3795871117113641: 58:1 277:1 289:1 obj 1\\
0.750723519197376: 58:1 278:1 288:1 obj 1\\
0.1780050163997686: 62:1 280:1 281:1 obj 1\\
0.6862049006366973: 83:1 234:1 301:1 obj 1\\
0.648427551611036: 83:1 265:1 267:1 obj 1\\
0.2015435076210691: 102:1 241:1 271:1 obj 1\\
1.201543507621069: 119:1 224:1 277:1 obj 1\\
1: 158:1 168:1 297:1 obj 1\\
0.6007910476557977: 160:1 190:1 271:1 obj 1\\
1: 24:1 233:1 obj 1\\
0.03229789697086671: 30:1 296:1 298:1 obj 1\\
0.01817480223808565: 31:1 294:1 299:1 obj 1\\
0.5335327030677208: 44:1 279:1 302:1 obj 1\\
0.1506656376615866: 56:1 246:1 311:1 obj 1\\
0.8169014084507039: 61:1 271:1 287:1 obj 1\\
0.6038780628979354: 62:1 273:1 284:1 obj 1\\
0.8906810727377962: 65:1 234:1 311:1 obj 1\\
0.7988423692841984: 79:1 240:1 297:1 obj 1\\
0.9052479259116348: 82:1 227:1 310:1 obj 1\\
0.9126953501832917: 100:1 240:1 274:1 obj 1\\
0.08730464981670827: 100:1 244:1 270:1 obj 1\\
1: 129:1 197:1 302:1 obj 1\\
0.03914721203935961: 149:1 160:1 311:1 obj 1\\
0.6399382596951573: 150:1 184:1 293:1 obj 1\\
0.7984179046884046: 154:1 158:1 309:1 obj 1\\
0.7115377194674901: 21:1 293:1 309:1 obj 1\\
0.5335327030677208: 28:1 298:1 300:1 obj 1\\
0.5826162454177121: 31:1 279:1 311:1 obj 1\\
0.4664672969322791: 44:1 281:1 300:1 obj 1\\
0.683445880764036: 62:1 242:1 308:1 obj 1\\
0.06467296932278538: 77:1 268:1 270:1 obj 1\\
0.3318927262203355: 79:1 265:1 272:1 obj 1\\
0.05124445301948644: 80:1 262:1 274:1 obj 1\\
0.6000578815357894: 83:1 246:1 290:1 obj 1\\
1: 105:1 234:1 277:1 obj 1\\
1: 120:1 205:1 300:1 obj 1\\
0.2015820953115954: 158:1 182:1 288:1 obj 1\\
0.7984179046884046: 160:1 182:1 286:1 obj 1\\
0.03606019679722183: 61:1 274:1 284:1 obj 1\\
0.1830985915492961: 62:1 270:1 287:1 obj 1\\
0.02263168049392289: 77:1 266:1 273:1 obj 1\\
0.06376615859540846: 79:1 241:1 296:1 obj 1\\
0.575265290372372: 83:1 264:1 268:1 obj 1\\
0.3992089523442023: 124:1 190:1 307:1 obj 1\\
0.3514759791626475: 147:1 185:1 294:1 obj 1\\
0.249276480802624: 150:1 218:1 246:1 obj 1\\
0.2015820953115954: 154:1 160:1 307:1 obj 1\\






File: BPP_500_750_0.1_0.8_9.txt  Instance No. 1
Wed Feb 25 13:43:34 2015

LP0 Time: 0.61 IPTime: 0.62 The best integer solution (223):

1: 0:1 263:1 obj 1\\
2: 4:1 258:1 obj 1\\
1: 6:1 256:1 obj 1\\
1: 6:1 257:1 obj 1\\
2: 6:1 259:1 obj 1\\
1: 9:1 254:1 obj 1\\
1: 10:1 253:1 obj 1\\
1: 13:1 250:1 obj 1\\
1: 14:1 247:1 obj 1\\
1: 15:1 245:1 obj 1\\
1: 16:1 246:1 obj 1\\
1: 17:1 243:1 obj 1\\
1: 19:1 238:1 obj 1\\
2: 25:1 232:1 obj 1\\
1: 25:1 233:1 obj 1\\
2: 30:1 229:1 obj 1\\
1: 33:1 226:1 obj 1\\
1: 34:1 226:1 obj 1\\
2: 41:1 220:1 obj 1\\
1: 43:1 219:1 obj 1\\
1: 47:1 215:1 obj 1\\
1: 49:1 214:1 obj 1\\
3: 50:1 212:1 obj 1\\
1: 52:1 210:1 obj 1\\
1: 53:1 213:1 obj 1\\
1: 55:1 207:1 obj 1\\
3: 57:1 206:1 obj 1\\
3: 59:1 204:1 obj 1\\
1: 60:1 203:1 obj 1\\
1: 72:1 192:1 obj 1\\
3: 77:1 188:1 obj 1\\
1: 81:1 186:1 obj 1\\
1: 84:1 184:1 obj 1\\
1: 87:1 179:1 obj 1\\
1: 88:1 180:1 obj 1\\
1: 91:1 175:1 obj 1\\
1: 95:1 171:1 obj 1\\
1: 96:1 169:1 obj 1\\
1: 98:1 166:1 obj 1\\
1: 99:1 163:1 obj 1\\
2: 106:1 159:1 obj 1\\
1: 107:1 157:1 obj 1\\
1: 109:1 155:1 obj 1\\
2: 111:1 153:1 obj 1\\
1: 112:1 151:1 obj 1\\
1: 113:1 152:1 obj 1\\
1: 117:1 145:1 obj 1\\
1: 119:1 146:1 obj 1\\
2: 120:1 143:1 obj 1\\
1: 122:1 140:1 obj 1\\
2: 123:1 139:1 obj 1\\
1: 125:1 138:1 obj 1\\
2: 126:1 137:1 obj 1\\
1: 126:1 138:1 obj 1\\
1: 127:1 136:1 obj 1\\
1: 128:1 135:1 obj 1\\
1: 130:1 134:1 obj 1\\
1: 132:2 obj 1\\
1: 98:1 165:1 obj 1\\
1: 118:1 147:1 obj 1\\
1: 35:1 226:1 obj 1\\
1: 63:1 201:1 obj 1\\
1: 65:1 198:1 obj 1\\
1: 44:1 219:1 obj 1\\
1: 51:1 211:1 obj 1\\
1: 63:1 279:2 obj 1\\
1: 75:1 188:1 obj 1\\
1: 10:1 252:1 obj 1\\
1: 12:1 249:1 obj 1\\
1: 30:1 228:1 obj 1\\
1: 48:1 216:1 obj 1\\
1: 70:1 193:1 obj 1\\
1: 108:1 157:1 obj 1\\
1: 114:1 150:1 obj 1\\
1: 115:1 148:1 obj 1\\
2: 5:1 260:1 obj 1\\
1: 18:1 240:1 obj 1\\
1: 39:1 222:1 obj 1\\
1: 46:1 216:1 obj 1\\
1: 64:1 200:1 obj 1\\
2: 65:1 199:1 obj 1\\
1: 66:1 197:1 obj 1\\
1: 88:1 177:1 obj 1\\
1: 102:1 162:1 obj 1\\
1: 13:1 248:1 obj 1\\
1: 23:1 235:1 obj 1\\
1: 45:1 218:1 obj 1\\
1: 54:1 208:1 obj 1\\
1: 90:1 174:1 obj 1\\
1: 93:1 172:1 obj 1\\
1: 101:1 162:1 obj 1\\
1: 121:1 141:1 obj 1\\
1: 8:1 255:1 obj 1\\
1: 27:1 230:1 obj 1\\
1: 33:1 227:1 obj 1\\
1: 36:1 225:1 obj 1\\
1: 67:1 196:1 obj 1\\
2: 70:1 194:1 obj 1\\
1: 81:1 266:1 269:1 obj 1\\
2: 88:1 178:1 obj 1\\
1: 95:1 170:1 obj 1\\
1: 104:1 218:1 303:1 obj 1\\
1: 119:1 144:1 obj 1\\
1: 13:1 249:1 obj 1\\
1: 13:1 304:1 310:1 obj 1\\
1: 37:1 223:1 obj 1\\
1: 38:1 222:1 obj 1\\
1: 40:1 221:1 obj 1\\
1: 61:1 270:1 288:1 obj 1\\
1: 63:1 202:1 obj 1\\
2: 73:1 190:1 obj 1\\
1: 77:1 189:1 obj 1\\
1: 89:1 176:1 obj 1\\
1: 97:1 167:1 obj 1\\
1: 102:1 161:1 obj 1\\
1: 112:1 154:1 obj 1\\
1: 121:1 142:1 obj 1\\
1: 131:1 133:1 obj 1\\
1: 150:1 185:1 293:1 obj 1\\
1: 1:1 262:1 obj 1\\
1: 7:1 255:1 obj 1\\
1: 11:1 251:1 obj 1\\
1: 20:1 237:1 obj 1\\
1: 29:1 229:1 obj 1\\
1: 54:1 209:1 obj 1\\
2: 58:1 272:1 292:1 obj 1\\
2: 68:1 194:1 obj 1\\
1: 69:1 195:1 obj 1\\
1: 92:1 174:1 obj 1\\
1: 97:1 168:1 obj 1\\
1: 98:1 164:1 obj 1\\
1: 103:1 241:1 270:1 obj 1\\
1: 116:1 146:1 obj 1\\
1: 26:1 231:1 obj 1\\
1: 32:1 279:1 310:1 obj 1\\
1: 72:1 191:1 obj 1\\
1: 77:1 244:1 295:1 obj 1\\
1: 93:1 173:1 obj 1\\
1: 94:1 171:1 obj 1\\
1: 115:1 149:1 obj 1\\
1: 124:1 196:1 306:1 obj 1\\
1: 124:1 217:1 282:1 obj 1\\
1: 158:1 185:1 285:1 obj 1\\
1: 2:1 262:1 obj 1\\
1: 11:1 306:1 309:1 obj 1\\
1: 74:1 189:1 obj 1\\
1: 85:1 183:1 obj 1\\
1: 110:1 156:1 obj 1\\
1: 119:1 217:1 288:1 obj 1\\
1: 128:1 218:1 276:1 obj 1\\
1: 3:1 261:1 obj 1\\
1: 19:1 239:1 obj 1\\
1: 61:1 203:1 obj 1\\
1: 71:1 192:1 obj 1\\
1: 76:1 187:1 obj 1\\
1: 80:1 266:1 270:1 obj 1\\
1: 81:1 262:1 273:1 obj 1\\
1: 95:1 217:1 310:1 obj 1\\
1: 102:1 224:1 296:1 obj 1\\
1: 9:1 305:1 311:1 obj 1\\
1: 20:1 236:1 obj 1\\
1: 30:1 295:1 299:1 obj 1\\
1: 64:1 275:1 281:1 obj 1\\
1: 78:1 241:1 297:1 obj 1\\
1: 86:1 181:1 obj 1\\
1: 109:1 157:1 obj 1\\
1: 22:1 291:1 311:1 obj 1\\
1: 27:1 233:1 obj 1\\
1: 56:1 280:1 289:1 obj 1\\
1: 58:1 278:1 288:1 obj 1\\
1: 83:1 234:1 301:1 obj 1\\
1: 83:1 265:1 267:1 obj 1\\
1: 119:1 224:1 277:1 obj 1\\
1: 158:1 168:1 297:1 obj 1\\
1: 160:1 190:1 271:1 obj 1\\
1: 24:1 233:1 obj 1\\
1: 61:1 271:1 287:1 obj 1\\
1: 62:1 273:1 284:1 obj 1\\
1: 65:1 234:1 311:1 obj 1\\
1: 79:1 240:1 297:1 obj 1\\
1: 82:1 227:1 310:1 obj 1\\
1: 100:1 240:1 274:1 obj 1\\
1: 129:1 197:1 302:1 obj 1\\
1: 154:1 158:1 309:1 obj 1\\
1: 21:1 293:1 309:1 obj 1\\
1: 28:1 298:1 300:1 obj 1\\
1: 31:1 279:1 311:1 obj 1\\
1: 62:1 242:1 308:1 obj 1\\
1: 83:1 246:1 290:1 obj 1\\
1: 105:1 234:1 277:1 obj 1\\
1: 120:1 205:1 300:1 obj 1\\
1: 160:1 182:1 286:1 obj 1\\
1: 44:1 264:1 307:1 obj 1\\
1: 30:1 294:1 302:1 obj 1\\
1: 42:1 227:1 obj 1\\
1: 79:1 268:1 277:1 obj 1\\
1: 133:1 281:1 283:1 292:1 obj 1\\
1: 150:1 184:1 obj 1\\



The last LP solution 


File: BPP_500_750_0.1_0.8_9.txt  Instance No. 1
Wed Feb 25 13:43:34 2015

LP solution: lpval=222.8123287671233 lpbnd=223

1: 0:1 263:1 obj 1\\
2: 4:1 258:1 obj 1\\
1: 6:1 256:1 obj 1\\
1: 6:1 257:1 obj 1\\
2: 6:1 259:1 obj 1\\
1: 9:1 254:1 obj 1\\
1: 10:1 253:1 obj 1\\
1: 13:1 250:1 obj 1\\
1: 14:1 247:1 obj 1\\
1: 15:1 245:1 obj 1\\
1: 16:1 246:1 obj 1\\
1: 17:1 243:1 obj 1\\
1: 19:1 238:1 obj 1\\
2: 25:1 232:1 obj 1\\
1: 25:1 233:1 obj 1\\
2: 30:1 229:1 obj 1\\
0.3555276866679523: 30:1 281:1 311:1 obj 1\\
0.3992089523442023: 31:1 282:1 307:1 obj 1\\
1: 33:1 226:1 obj 1\\
1: 34:1 226:1 obj 1\\
2: 41:1 220:1 obj 1\\
1: 43:1 219:1 obj 1\\
1: 47:1 215:1 obj 1\\
1: 49:1 214:1 obj 1\\
3: 50:1 212:1 obj 1\\
1: 52:1 210:1 obj 1\\
1: 53:1 213:1 obj 1\\
1: 55:1 207:1 obj 1\\
3: 57:1 206:1 obj 1\\
3: 59:1 204:1 obj 1\\
1: 60:1 203:1 obj 1\\
0.1093189272622038: 65:1 277:2 obj 1\\
1: 72:1 192:1 obj 1\\
3: 77:1 188:1 obj 1\\
1: 81:1 186:1 obj 1\\
1: 84:1 184:1 obj 1\\
1: 87:1 179:1 obj 1\\
1: 88:1 180:1 obj 1\\
1: 91:1 175:1 obj 1\\
1: 95:1 171:1 obj 1\\
1: 96:1 169:1 obj 1\\
1: 98:1 166:1 obj 1\\
1: 99:1 163:1 obj 1\\
2: 106:1 159:1 obj 1\\
1: 107:1 157:1 obj 1\\
1: 109:1 155:1 obj 1\\
2: 111:1 153:1 obj 1\\
1: 112:1 151:1 obj 1\\
1: 113:1 152:1 obj 1\\
0.03914721203935961: 115:1 150:1 obj 1\\
1: 117:1 145:1 obj 1\\
0.3514759791626475: 118:1 144:1 obj 1\\
1: 119:1 146:1 obj 1\\
2: 120:1 143:1 obj 1\\
1: 122:1 140:1 obj 1\\
2: 123:1 139:1 obj 1\\
1: 125:1 138:1 obj 1\\
2: 126:1 137:1 obj 1\\
1: 126:1 138:1 obj 1\\
1: 127:1 136:1 obj 1\\
1: 128:1 135:1 obj 1\\
1: 130:1 134:1 obj 1\\
1: 132:2 obj 1\\
0.5: 133:2 obj 1\\
1: 98:1 165:1 obj 1\\
0.6485240208373525: 118:1 147:1 obj 1\\
1: 35:1 226:1 obj 1\\
1: 63:1 201:1 obj 1\\
1: 65:1 198:1 obj 1\\
1: 44:1 219:1 obj 1\\
1: 51:1 211:1 obj 1\\
0.9803202778313715: 63:1 279:2 obj 1\\
1: 75:1 188:1 obj 1\\
1: 10:1 252:1 obj 1\\
1: 12:1 249:1 obj 1\\
0.2884622805325099: 21:1 240:1 obj 1\\
1: 30:1 228:1 obj 1\\
1: 48:1 216:1 obj 1\\
1: 70:1 193:1 obj 1\\
1: 108:1 157:1 obj 1\\
1: 114:1 150:1 obj 1\\
1: 115:1 148:1 obj 1\\
2: 5:1 260:1 obj 1\\
1: 18:1 240:1 obj 1\\
1: 39:1 222:1 obj 1\\
1: 46:1 216:1 obj 1\\
1: 64:1 200:1 obj 1\\
2: 65:1 199:1 obj 1\\
1: 66:1 197:1 obj 1\\
1: 88:1 177:1 obj 1\\
1: 102:1 162:1 obj 1\\
1: 13:1 248:1 obj 1\\
1: 23:1 235:1 obj 1\\
1: 45:1 218:1 obj 1\\
1: 54:1 208:1 obj 1\\
0.4900443758441053: 83:1 227:1 309:1 obj 1\\
1: 90:1 174:1 obj 1\\
1: 93:1 172:1 obj 1\\
1: 101:1 162:1 obj 1\\
1: 121:1 141:1 obj 1\\
1: 8:1 255:1 obj 1\\
1: 27:1 230:1 obj 1\\
1: 33:1 227:1 obj 1\\
1: 36:1 225:1 obj 1\\
1: 67:1 196:1 obj 1\\
2: 70:1 194:1 obj 1\\
0.7346903337835224: 81:1 266:1 269:1 obj 1\\
2: 88:1 178:1 obj 1\\
1: 95:1 170:1 obj 1\\
1: 104:1 218:1 303:1 obj 1\\
0.6485240208373525: 119:1 144:1 obj 1\\
1: 13:1 249:1 obj 1\\
1: 13:1 304:1 310:1 obj 1\\
0.1054794520547939: 32:1 295:1 296:1 obj 1\\
1: 37:1 223:1 obj 1\\
1: 38:1 222:1 obj 1\\
1: 40:1 221:1 obj 1\\
0.2002315261431591: 56:1 277:1 291:1 obj 1\\
0.8977619139494503: 61:1 270:1 288:1 obj 1\\
1: 63:1 202:1 obj 1\\
2: 73:1 190:1 obj 1\\
1: 77:1 189:1 obj 1\\
1: 89:1 176:1 obj 1\\
1: 97:1 167:1 obj 1\\
1: 102:1 161:1 obj 1\\
1: 112:1 154:1 obj 1\\
1: 121:1 142:1 obj 1\\
1: 131:1 133:1 obj 1\\
0.6485240208373525: 150:1 185:1 293:1 obj 1\\
1: 1:1 262:1 obj 1\\
1: 7:1 255:1 obj 1\\
1: 11:1 251:1 obj 1\\
1: 20:1 237:1 obj 1\\
1: 29:1 229:1 obj 1\\
1: 54:1 209:1 obj 1\\
1.668107273779665: 58:1 272:1 292:1 obj 1\\
2: 68:1 194:1 obj 1\\
1: 69:1 195:1 obj 1\\
0.09475207408836517: 82:1 266:1 268:1 obj 1\\
1: 92:1 174:1 obj 1\\
1: 97:1 168:1 obj 1\\
1: 98:1 164:1 obj 1\\
1: 103:1 241:1 270:1 obj 1\\
1: 116:1 146:1 obj 1\\
1: 26:1 231:1 obj 1\\
0.4664672969322791: 28:1 297:1 302:1 obj 1\\
0.3137950993633028: 30:1 294:1 301:1 obj 1\\
0.8945205479452061: 32:1 279:1 310:1 obj 1\\
0.5658306000385882: 42:1 292:2 obj 1\\
0.249276480802624: 61:1 276:1 283:1 obj 1\\
1: 72:1 191:1 obj 1\\
0.9126953501832917: 77:1 244:1 295:1 obj 1\\
1: 93:1 173:1 obj 1\\
1: 94:1 171:1 obj 1\\
0.9608527879606403: 115:1 149:1 obj 1\\
1: 124:1 196:1 306:1 obj 1\\
0.6007910476557977: 124:1 217:1 282:1 obj 1\\
1: 158:1 185:1 285:1 obj 1\\
0.3600617403048427: 160:1 184:1 284:1 obj 1\\
1: 2:1 262:1 obj 1\\
1: 11:1 306:1 309:1 obj 1\\
1: 74:1 189:1 obj 1\\
0.2653096662164776: 78:1 268:1 269:1 obj 1\\
0.316554119235964: 81:1 242:1 294:1 obj 1\\
1: 85:1 183:1 obj 1\\
1: 110:1 156:1 obj 1\\
1.149932471541578: 119:1 217:1 288:1 obj 1\\
0.750723519197376: 128:1 218:1 276:1 obj 1\\
0.4231140266255066: 150:1 227:1 234:1 obj 1\\
1: 3:1 261:1 obj 1\\
1: 19:1 239:1 obj 1\\
0.316554119235964: 30:1 283:1 308:1 obj 1\\
0.02868994790661827: 56:1 279:1 290:1 obj 1\\
0.2015820953115954: 58:1 280:1 286:1 obj 1\\
1: 61:1 203:1 obj 1\\
0.3515724483889639: 62:1 267:1 290:1 obj 1\\
1: 71:1 192:1 obj 1\\
1: 76:1 187:1 obj 1\\
0.3807640362724293: 79:1 266:1 271:1 obj 1\\
0.1815936716187534: 80:1 227:1 311:1 obj 1\\
0.7671618753617602: 80:1 266:1 270:1 obj 1\\
0.9487555469805136: 81:1 262:1 273:1 obj 1\\
1: 95:1 217:1 310:1 obj 1\\
0.7984564923789309: 102:1 224:1 296:1 obj 1\\
0.249276480802624: 128:1 217:1 278:1 obj 1\\
1: 9:1 305:1 311:1 obj 1\\
1: 20:1 236:1 obj 1\\
0.9818251977619143: 30:1 295:1 299:1 obj 1\\
0.01967972216862846: 63:1 265:1 290:1 obj 1\\
1: 64:1 275:1 281:1 obj 1\\
0.7346903337835224: 78:1 241:1 297:1 obj 1\\
0.424734709627628: 79:1 264:1 273:1 obj 1\\
1: 86:1 181:1 obj 1\\
1: 109:1 157:1 obj 1\\
0.7997684738568409: 22:1 291:1 311:1 obj 1\\
0.2002315261431591: 22:1 292:1 310:1 obj 1\\
1: 27:1 233:1 obj 1\\
0.4341693999614118: 42:1 283:1 298:1 obj 1\\
0.6204128882886359: 56:1 280:1 289:1 obj 1\\
0.3795871117113641: 58:1 277:1 289:1 obj 1\\
0.750723519197376: 58:1 278:1 288:1 obj 1\\
0.1780050163997686: 62:1 280:1 281:1 obj 1\\
0.6862049006366973: 83:1 234:1 301:1 obj 1\\
0.648427551611036: 83:1 265:1 267:1 obj 1\\
0.2015435076210691: 102:1 241:1 271:1 obj 1\\
1.201543507621069: 119:1 224:1 277:1 obj 1\\
1: 158:1 168:1 297:1 obj 1\\
0.6007910476557977: 160:1 190:1 271:1 obj 1\\
1: 24:1 233:1 obj 1\\
0.03229789697086671: 30:1 296:1 298:1 obj 1\\
0.01817480223808565: 31:1 294:1 299:1 obj 1\\
0.5335327030677208: 44:1 279:1 302:1 obj 1\\
0.1506656376615866: 56:1 246:1 311:1 obj 1\\
0.8169014084507039: 61:1 271:1 287:1 obj 1\\
0.6038780628979354: 62:1 273:1 284:1 obj 1\\
0.8906810727377962: 65:1 234:1 311:1 obj 1\\
0.7988423692841984: 79:1 240:1 297:1 obj 1\\
0.9052479259116348: 82:1 227:1 310:1 obj 1\\
0.9126953501832917: 100:1 240:1 274:1 obj 1\\
0.08730464981670827: 100:1 244:1 270:1 obj 1\\
1: 129:1 197:1 302:1 obj 1\\
0.03914721203935961: 149:1 160:1 311:1 obj 1\\
0.6399382596951573: 150:1 184:1 293:1 obj 1\\
0.7984179046884046: 154:1 158:1 309:1 obj 1\\
0.7115377194674901: 21:1 293:1 309:1 obj 1\\
0.5335327030677208: 28:1 298:1 300:1 obj 1\\
0.5826162454177121: 31:1 279:1 311:1 obj 1\\
0.4664672969322791: 44:1 281:1 300:1 obj 1\\
0.683445880764036: 62:1 242:1 308:1 obj 1\\
0.06467296932278538: 77:1 268:1 270:1 obj 1\\
0.3318927262203355: 79:1 265:1 272:1 obj 1\\
0.05124445301948644: 80:1 262:1 274:1 obj 1\\
0.6000578815357894: 83:1 246:1 290:1 obj 1\\
1: 105:1 234:1 277:1 obj 1\\
1: 120:1 205:1 300:1 obj 1\\
0.2015820953115954: 158:1 182:1 288:1 obj 1\\
0.7984179046884046: 160:1 182:1 286:1 obj 1\\
0.03606019679722183: 61:1 274:1 284:1 obj 1\\
0.1830985915492961: 62:1 270:1 287:1 obj 1\\
0.02263168049392289: 77:1 266:1 273:1 obj 1\\
0.06376615859540846: 79:1 241:1 296:1 obj 1\\
0.575265290372372: 83:1 264:1 268:1 obj 1\\
0.3992089523442023: 124:1 190:1 307:1 obj 1\\
0.3514759791626475: 147:1 185:1 294:1 obj 1\\
0.249276480802624: 150:1 218:1 246:1 obj 1\\
0.2015820953115954: 154:1 160:1 307:1 obj 1\\



